c colouring generated by benchmark framework
p edge 125 6961
v 1 15
v 2 25
v 3 49
v 4 4
v 5 28
v 6 24
v 7 24
v 8 39
v 9 20
v 10 23
v 11 10
v 12 22
v 13 6
v 14 5
v 15 25
v 16 3
v 17 34
v 18 13
v 19 57
v 20 29
v 21 26
v 22 8
v 23 46
v 24 0
v 25 20
v 26 29
v 27 7
v 28 44
v 29 9
v 30 38
v 31 48
v 32 2
v 33 46
v 34 12
v 35 2
v 36 5
v 37 37
v 38 19
v 39 57
v 40 4
v 41 33
v 42 55
v 43 17
v 44 32
v 45 54
v 46 34
v 47 18
v 48 16
v 49 1
v 50 8
v 51 45
v 52 21
v 53 10
v 54 27
v 55 20
v 56 54
v 57 13
v 58 52
v 59 41
v 60 45
v 61 19
v 62 56
v 63 35
v 64 37
v 65 50
v 66 53
v 67 10
v 68 15
v 69 1
v 70 11
v 71 31
v 72 31
v 73 3
v 74 40
v 75 47
v 76 30
v 77 31
v 78 42
v 79 29
v 80 24
v 81 12
v 82 38
v 83 36
v 84 17
v 85 40
v 86 22
v 87 8
v 88 30
v 89 0
v 90 23
v 91 34
v 92 11
v 93 16
v 94 14
v 95 21
v 96 14
v 97 43
v 98 35
v 99 39
v 100 6
v 101 18
v 102 9
v 103 28
v 104 47
v 105 2
v 106 3
v 107 0
v 108 28
v 109 43
v 110 55
v 111 25
v 112 48
v 113 22
v 114 44
v 115 32
v 116 7
v 117 35
v 118 32
v 119 51
v 120 9
v 121 26
v 122 33
v 123 27
v 124 51
v 125 17
